SCIP version 5.0.0 [precision: 8 byte] [memory: block] [mode: optimized] [LP solver: NONE] [GitHash: 3bbd232]
Copyright (C) 2002-2017 Konrad-Zuse-Zentrum fuer Informationstechnik Berlin (ZIB)

External codes: 
  Readline EditLine w  GNU library for command line editing (gnu.org/s/readline)
  CppAD 20160000.1     Algorithmic Differentiation of C++ algorithms developed by B. Bell (www.coin-or.org/CppAD)
  ZLIB 1.2.5           General purpose compression library by J. Gailly and M. Adler (zlib.net)
  GMP 6.1.2            GNU Multiple Precision Arithmetic Library developed by T. Granlund (gmplib.org)

user parameter file <scip.set> not found - using default parameters

read problem <../../Split_data/output/breast/0/0_sample_breast.logreg>
============

File name	:	../../Split_data/output/breast/0/0_sample_breast.logreg
Problem name 	:	0_sample_breast
Number of data	:	155
Number of var	:	33
The given data has linear dependence
16 sets of column vector are linearly dependent:
elements are all 0
elements are all 0
elements are all 0
elements are all 0
elements are all 0
elements are all 0

[dim=1] time: 0.005461
[dim=2] time: 0.009915
[dim=3] time: 0.013183
[dim=4] time: 0.01554
[dim=5] time: 0.017669
[dim=6] time: 0.01957
[dim=7] Time of forward = 0.021444sec.
AIC: 130.831
k: 6

[dim=17] time: 0.00774
[dim=16] time: 0.011883
[dim=15] time: 0.013864
[dim=14] time: 0.015819
[dim=13] time: 0.017864
[dim=12] time: 0.019358
[dim=11] time: 0.020812
[dim=10] time: 0.022476
[dim=9] time: 0.023826
[dim=8] time: 0.025503
[dim=7] time: 0.02681
[dim=6] time: 0.02778
[dim=5] Time of backward = 0.028787sec.
AIC: 130.602
k: 6
